40 40 40
50
28 22 13
26 31 16
14 19 13
15 28 9
6 15 28
4 11 28
16 2 9
12 30 19
21 1 20
35 25 8
34 4 21
35 35 35
25 21 25
3 11 7
28 17 24
26 19 7
3 11 14
8 29 28
10 19 16
24 9 13
22 14 16
32 1 11
27 20 1
33 3 2
3 21 29
17 27 3
2 22 14
12 32 5
7 15 28
33 28 15
22 23 24
34 3 19
25 15 4
16 27 12
25 20 35
9 15 23
6 18 15
25 14 6
16 4 8
27 7 19
5 33 7
12 10 31
23 30 16
4 33 21
24 23 32
4 2 3
17 26 4
29 8 27
17 30 10
3 33 26
